c 105_4_checker_5cl.cnf
c
c field = 105
c formula set type = 4_checker_5cl
c
p cnf 5 6
200 
202 
204 
206 
-198 
201 
203 
205 
207 
-199 
80 
112 
144 
176 
-48 
81 
113 
145 
177 
-49 
236 
264 
292 
320 
-348 
237 
265 
293 
321 
-349 
